p cnf 23 11
a 1 2 3 4 0
e 5 0
a 6 7 0
e 8 0
a 9 0
e 10 11 0
a 12 13 14 0
e 15 16 17 18 0
a 19 0
e 20 0
a 21 0
e 22 23 0
-18 -5 10 -3 0
-18 21 -6 -16 0
11 5 7 0
21 -5 -23 -12 0
11 -23 15 -20 -18 0
21 -19 2 -9 0
21 6 12 19 -14 0
5 16 -12 0
1 11 -14 -9 0
-6 23 -21 -18 0
-9 1 2 0
